[[7, 35, 53, 14, 59, 11, 66, 65, 38, 10, 58, 12, 26, 17, 40, 72, 39, 9, 31, 25, 55, 50, 18, 24, 32, 44, 3, 49, 16, 51, 33, 63, 23, 56, 43, 41], [42, 64, 22, 73, 62, 28, 61, 21, 47, 69, 36, 71, 60, 70, 20, 37, 57, 15, 5, 29, 45, 48, 30, 74, 2, 6, 68, 75, 76, 4, 67, 34, 46, 52, 27, 13, 54, 19, 8]]